;; Original file: term_386.smt2
(set-logic HORN)
(declare-fun starexecinv1 (Real Real Real Real) Bool)

(assert (forall ((|XXX0prime| Real)
         (|XXX1prime| Real)
         (|gh0prime| Real)
         (|gh1prime| Real))
  (let ((a!1 (> |gh0prime| (* (+ 0 (- 1)) |XXX0prime|)))
        (a!2 (> |gh0prime| (* (+ 0 (- 1)) |XXX1prime|)))
        (a!3 (> |gh1prime| (* (+ 0 (- 1)) |XXX0prime|)))
        (a!4 (> |gh1prime| (* (+ 0 (- 1)) |XXX1prime|))))
  (let ((a!5 (and true
                  (= |XXX0prime| (+ |XXX1prime| (+ 0 2)))
                  (> |gh0prime| |XXX0prime|)
                  (> |gh0prime| |XXX1prime|)
                  a!1
                  a!2
                  (> |gh1prime| |XXX0prime|)
                  (> |gh1prime| |XXX1prime|)
                  a!3
                  a!4)))
    (=> a!5 (starexecinv1 |XXX0prime| |XXX1prime| |gh0prime| |gh1prime|))))))
(assert (forall ((|XXX0| Real)
         (|XXX1| Real)
         (gh0 Real)
         (gh1 Real)
         (|XXX0prime| Real)
         (|XXX1prime| Real)
         (|gh1prime| Real)
         (|gh0prime| Real))
  (let ((a!1 (+ 0 (ite (>= |XXX0| (+ 0 0)) 1 0)))
        (a!2 (and (= |gh1prime| (- gh1 (+ 0 1)))
                  (> gh1 (+ 0 0))
                  (= |gh0prime| gh0)))
        (a!3 (> |gh1prime| (* (+ 0 (- 1)) |XXX0prime|)))
        (a!4 (> |gh1prime| (* (+ 0 (- 1)) |XXX1prime|))))
  (let ((a!5 (and (= |gh0prime| (- gh0 (+ 0 1)))
                  (> |gh1prime| |XXX0prime|)
                  (> |gh1prime| |XXX1prime|)
                  a!3
                  a!4
                  (<= gh1 (+ 0 0)))))
  (let ((a!6 (and (starexecinv1 |XXX0| |XXX1| gh0 gh1)
                  (not (= |XXX1| (+ 0 0)))
                  (= |XXX0prime| (- |XXX0| (+ 0 1)))
                  (= |XXX1prime| a!1)
                  (or a!2 a!5)
                  true)))
    (=> a!6 (starexecinv1 |XXX0prime| |XXX1prime| |gh0prime| |gh1prime|)))))))
(assert (forall ((|XXX0| Real)
         (|XXX1| Real)
         (gh0 Real)
         (gh1 Real)
         )
  (let ((a!1 (and (starexecinv1 |XXX0| |XXX1| gh0 gh1)
                  (not (= |XXX1| (+ 0 0)))
                  (< gh0 (+ 0 0))
                  true)))
    (=> a!1 false))))
(check-sat)
